Version identifier: 20.1.0.0 | 2020-11-10 | 9bedb6d68
Found incumbent of value 0.000000 after 0.00 sec. (0.00 ticks)
Tried aggregator 2 times.
MIP Presolve eliminated 93 rows and 32 columns.
MIP Presolve modified 12 coefficients.
Aggregator did 38 substitutions.
Reduced MIP has 40 rows, 43 columns, and 130 nonzeros.
Reduced MIP has 29 binaries, 0 generals, 0 SOSs, and 14 indicators.
Presolve time = 0.01 sec. (0.32 ticks)
Probing fixed 0 vars, tightened 7 bounds.
Probing changed sense of 7 constraints.
Probing time = 0.00 sec. (0.09 ticks)
Tried aggregator 1 time.
MIP Presolve eliminated 38 rows and 40 columns.
MIP Presolve modified 52 coefficients.
Reduced MIP has 2 rows, 3 columns, and 4 nonzeros.
Reduced MIP has 3 binaries, 0 generals, 0 SOSs, and 0 indicators.
Presolve time = 0.00 sec. (0.13 ticks)
Probing time = 0.00 sec. (0.00 ticks)
Tried aggregator 1 time.
MIP Presolve eliminated 2 rows and 3 columns.
All rows and columns eliminated.
Presolve time = 0.00 sec. (0.00 ticks)

Root node processing (before b&c):
  Real time             =    0.01 sec. (0.60 ticks)
Parallel b&c, 10 threads:
  Real time             =    0.00 sec. (0.00 ticks)
  Sync time (average)   =    0.00 sec.
  Wait time (average)   =    0.00 sec.
                          ------------
Total (root+branch&cut) =    0.01 sec. (0.60 ticks)
